Route 1: 92 95 62 67 71 94 96 54 91 80
Route 2: 65 98 69 88 53 55 68 70 100
Route 3: 72 61 81 90 66 56 93
Route 4: 82 52 99 86 57 20 24 25
Route 5: 83 64 51 85 84 74
Route 6: 5 45 2 7 6 8 46 4 60
Route 7: 42 39 38 44 41 37 43
Route 8: 14 15 47 16 78 10 13
Route 9: 12 11 9 87 97 58 77
Route 10: 63 33 28 30 34 50
Route 11: 23 21 19 49 22 48
Route 12: 73 79 3 1
Route 13: 59 75 17
Route 14: 36 40 35
Route 15: 76 18 89
Route 16: 31 29 27 26 32
Vehicles: 16
Distance: 1955.88
